p cnf 10 50
-6 10 -5 0
-1 4 -2 0
10 -8 -7 0
3 10 2 0
5 10 -6 0
8 -3 -1 0
-4 7 10 0
9 3 -6 0
9 -7 10 0
-5 -1 4 0
-7 9 5 0
10 2 -5 0
7 -5 2 0
-8 1 3 0
10 -1 -3 0
-7 3 -1 0
1 -8 -3 0
5 7 -3 0
1 -4 -7 0
-2 -9 -7 0
-2 7 4 0
-6 3 -9 0
-2 4 8 0
7 -3 9 0
-8 -4 -10 0
-7 -1 -4 0
3 10 5 0
-9 -4 6 0
-10 -6 9 0
-4 -6 -5 0
-2 -3 10 0
-10 -2 -1 0
-6 10 7 0
8 -6 9 0
-1 -6 -8 0
10 1 -3 0
1 -4 -10 0
9 2 -6 0
-3 2 -7 0
-7 -10 5 0
10 -6 8 0
-8 4 -7 0
-7 -5 -2 0
2 10 8 0
5 -1 4 0
9 6 -2 0
5 -3 -6 0
2 -7 8 0
-4 3 7 0
-4 6 1 0